73
28
0 30 33 34 35 37 40 41 46 48 49 50 52 53 54 56 62 65 66 69 70 71
1 28 33 34 35 40 42 46 48 49 50 52 53 56 59 62 64 65 66 67 69 70
2 29 32 37 38 40 42 43 46 47 48 49 50 51 53 54 56 58 63 64 65 66 68 69 70
3 29 33 34 37 38 39 44 45 46 48 49 50 51 52 53 54 56 57 58 59 65 66 67 69 70
4 29 30 31 33 34 40 46 48 49 50 51 52 53 61 62 64 65 66 67 69 70 71
5 28 29 33 37 39 40 41 45 46 48 49 52 56 59 60 61 62 63 65 66 67 69 70 72
6 29 33 34 39 40 45 46 47 49 50 51 52 53 56 57 62 65 69 70
7 28 33 35 37 43 44 45 46 48 49 50 53 56 59 63 65 66 67 69 70 71 72
8 29 40 46 48 49 52 53 57 59 64 65 69 70 71
9 33 34 35 43 44 46 47 48 49 50 51 57 60 62 65 66 67 68 69 70
10 29 33 38 42 43 48 50 52 59 60 61 66 69
11 29 34 37 39 40 42 43 44 46 48 49 51 52 53 56 58 62 65 66 67 70
12 35 38 39 44 45 52 57 59 60 63 64 66 67 69
13 29 30 34 38 40 42 44 45 46 50 51 58 59 62 65 69
14 28 29 33 34 37 38 39 40 43 45 46 52 53 63 66 67 70
15 30 34 44 46 47 48 52 56 57 58 60 62 63 68 69 71 72
16 36 37 39 40 46 52 60 67 70 71
17 37 42 51 62 63 70
18 30 38 41 42 45 46 48 49 51 52 53 59 60 66 67 69 71
19 28 30 33 34 38 39 42 43 46 47 48 49 51 54 59 63 64 71 72
20 30 33 34 40 41 42 43 45 49 51 59 61 62 64 65 66 69
21 29 36 37 41 45 47
22 29 35 37 41 45 52 55 57 61 62
23 32 35 39 41 44 56 61 64
24 36 68
25 38 48 49 53
26 28
27
